372
142
45
160
0
19
161
0
143
120
81
127
424
0
33
50
82
75
22
25
87
365
131
16
45
297
43
156
99
48
97
24
86
59
0
23
46
29
107
47
15
79
42
40
155
60
16
240
167
53
110
45
92
45
78
618
116
519
404
16
51
140
207
669
70
257
33
68
85
34
33
46
22
116
31
288
28
63
56
0
27
69
14
0
200
70
23
609
327
207
87
18
82
14
119
73
345
160
217
104
